34300 40925 
36540 40398 
36037 40578 
36175 40531 
35393 40692 
34177 40954 
37082 40257 
36650 40364 
37147 40216 
37627 40045 
39683 38864 
36944 40304 
37429 40202 
36655 40360 
36255 40484 
35270 40721 
34997 40838 
36821 40355 
35743 40638 
36512 40411 
39073 39321 
38310 39756 
39935 38706 
38435 39687 
39828 38790 
38531 39683 
38596 39642 
37817 40011 
35077 40791 
35605 40685 
36389 40462 
39325 39163 
38137 39838 
38057 39885 
39218 39247 
38820 39504 
38122 39844 
